50 96 55 66 54 47 70 18 48 97 46 19 99 83 52 85 76 79 84 75 27 10 8 28 7 37 88 72 21 77 32 16 65 12 1 94 17 38 33 56 74 39 69 73 98 81 14 57 13 87 22 34 89 41 26 44 43 11 25 71 91 90 59 30 5 20 0 61 68 64 92 35 62 80 31 78 2 63 82 86 93 9 42 6 49 53 95 60 15 24 40 51 29 67 23 36 3 45 58 4